Optimal - objective value 8.00000000
      0 x_0_0                       1                       1
      1 x_1_0                       1                       0
      5 x_2_2                       1                       1
      9 x_3_3                       1                       1
     13 x_4_3                       1                       0
     15 x_5_0                       1                       0
     27 x_6_6                       1                       1
     35 x_7_7                       1                       1
     43 x_8_7                       1                       0
     52 x_9_7                       1                       0
     58 x_10_3                      1                       0
     69 x_11_3                      1                       0
     85 x_12_7                      1                       0
    104 x_13_13                     1                       1
    119 x_14_14                     1                       0
    134 x_15_14                     1                       1
    150 x_16_14                     1                       0
    159 x_17_6                      1                       0
    189 x_18_18                     1                       1
    196 x_19_6                      1                       0
    223 x_20_13                     1                       0
    237 x_21_6                      1                       0
    267 x_22_14                     1                       0
    294 x_23_18                     1                       0
    314 x_24_14                     1                       0
    327 x_25_2                      1                       0
    364 x_26_13                     1                       0
    396 x_27_18                     1                       0
    413 x_28_7                      1                       0
    449 x_29_14                     1                       0
    471 x_30_6                      1                       0
    499 x_31_3                      1                       0
    530 x_32_2                      1                       0
    564 x_33_3                      1                       0
    608 x_34_13                     1                       0
    648 x_35_18                     1                       0
    668 x_36_2                      1                       0
    703 x_37_0                      1                       0
    741 x_38_0                      1                       0
    787 x_39_7                      1                       0
    826 x_40_6                      1                       0
    879 x_41_18                     1                       0
    916 x_42_13                     1                       0
    949 x_43_3                      1                       0
    992 x_44_2                      1                       0
   1048 x_45_13                     1                       0
   1099 x_46_18                     1                       0
   1130 x_47_2                      1                       0
   1183 x_48_7                      1                       0
   1238 x_49_13                     1                       0
   1293 x_50_18                     1                       0
   1344 x_51_18                     1                       0
